NAME: tsp15_22
COMMENT: 15-tsp problem (Padberg/Rinaldi)
TYPE: TSP
DIMENSION: 15
EDGE_WEIGHT_TYPE : EUC_2D
NODE_COORD_SECTION
1 27 33
2 26 35
3 34 1
4 0 30
5 33 27
6 17 20
7 9 1
8 32 39
9 4 6
10 35 38
11 31 27
12 8 37
13 6 22
14 32 21
15 31 11
